language ESSENCE' 1.0

letting C_FunctionND be
        [[0, 0, 0, 0, 0, 0, 0, 0, 0, 0, 0, 0, 0, 0, 0, 0, 0, 0, 0, 0, 0; int(0..20)],
         [1, 0, 0, 0, 0, 0, 0, 0, 0, 0, 0, 0, 0, 0, 0, 0, 0, 0, 0, 0, 0; int(0..20)],
         [1, 0, 0, 0, 0, 0, 0, 0, 0, 0, 0, 0, 0, 0, 0, 0, 0, 0, 0, 0, 0; int(0..20)],
         [1, 0, 0, 0, 0, 0, 0, 0, 0, 0, 0, 0, 0, 0, 0, 0, 0, 0, 0, 0, 0; int(0..20)],
         [1, 0, 0, 0, 0, 0, 0, 0, 0, 0, 0, 0, 0, 0, 0, 0, 0, 0, 0, 0, 0; int(0..20)],
         [1, 0, 0, 0, 0, 0, 0, 0, 0, 0, 0, 0, 0, 0, 0, 0, 0, 0, 0, 0, 0; int(0..20)],
         [1, 0, 0, 0, 0, 0, 0, 0, 0, 0, 0, 0, 0, 0, 0, 0, 0, 0, 0, 0, 0; int(0..20)],
         [1, 0, 0, 0, 0, 0, 0, 0, 0, 0, 0, 0, 0, 0, 0, 0, 0, 0, 0, 0, 0; int(0..20)],
         [1, 0, 0, 0, 0, 0, 0, 0, 0, 0, 0, 0, 0, 0, 0, 0, 0, 0, 0, 0, 0; int(0..20)],
         [0, 1, 1, 0, 0, 0, 1, 0, 0, 0, 0, 0, 0, 0, 0, 0, 0, 0, 0, 0, 0; int(0..20)],
         [0, 1, 0, 1, 1, 0, 0, 0, 1, 0, 0, 0, 0, 0, 0, 0, 0, 0, 0, 0, 0; int(0..20)],
         [0, 1, 0, 0, 0, 1, 0, 0, 0, 0, 0, 0, 0, 0, 0, 0, 0, 0, 0, 0, 0; int(0..20)],
         [0, 1, 0, 0, 0, 0, 0, 1, 0, 0, 0, 0, 0, 0, 0, 0, 0, 0, 0, 0, 0; int(0..20)],
         [0, 0, 1, 1, 0, 0, 0, 1, 0, 0, 0, 0, 0, 0, 0, 0, 0, 0, 0, 0, 0; int(0..20)],
         [0, 0, 1, 0, 1, 1, 0, 0, 0, 0, 0, 0, 0, 0, 0, 0, 0, 0, 0, 0, 0; int(0..20)],
         [0, 0, 1, 0, 0, 0, 0, 0, 1, 0, 0, 0, 0, 0, 0, 0, 0, 0, 0, 0, 0; int(0..20)],
         [0, 0, 0, 1, 0, 1, 1, 0, 0, 0, 0, 0, 0, 0, 0, 0, 0, 0, 0, 0, 0; int(0..20)],
         [0, 0, 0, 0, 1, 0, 1, 1, 0, 0, 0, 0, 0, 0, 0, 0, 0, 0, 0, 0, 0; int(0..20)],
         [0, 0, 0, 0, 0, 1, 0, 1, 1, 0, 0, 0, 0, 0, 0, 0, 0, 0, 0, 0, 0; int(0..20)],
         [0, 0, 0, 0, 0, 0, 1, 0, 1, 0, 0, 0, 0, 0, 0, 0, 0, 0, 0, 0, 0; int(0..20)],
         [0, 0, 0, 0, 0, 0, 0, 0, 0, 1, 1, 1, 1, 1, 1, 1, 1, 1, 1, 1, 0; int(0..20)];
             int(0..20)]
$ Visualisation for C_FunctionND
$ 0 0 0 0 0 0 0 0 0 0 0 0 0 0 0 0 0 0 0 0 0
$ 1 0 0 0 0 0 0 0 0 0 0 0 0 0 0 0 0 0 0 0 0
$ 1 0 0 0 0 0 0 0 0 0 0 0 0 0 0 0 0 0 0 0 0
$ 1 0 0 0 0 0 0 0 0 0 0 0 0 0 0 0 0 0 0 0 0
$ 1 0 0 0 0 0 0 0 0 0 0 0 0 0 0 0 0 0 0 0 0
$ 1 0 0 0 0 0 0 0 0 0 0 0 0 0 0 0 0 0 0 0 0
$ 1 0 0 0 0 0 0 0 0 0 0 0 0 0 0 0 0 0 0 0 0
$ 1 0 0 0 0 0 0 0 0 0 0 0 0 0 0 0 0 0 0 0 0
$ 1 0 0 0 0 0 0 0 0 0 0 0 0 0 0 0 0 0 0 0 0
$ 0 1 1 0 0 0 1 0 0 0 0 0 0 0 0 0 0 0 0 0 0
$ 0 1 0 1 1 0 0 0 1 0 0 0 0 0 0 0 0 0 0 0 0
$ 0 1 0 0 0 1 0 0 0 0 0 0 0 0 0 0 0 0 0 0 0
$ 0 1 0 0 0 0 0 1 0 0 0 0 0 0 0 0 0 0 0 0 0
$ 0 0 1 1 0 0 0 1 0 0 0 0 0 0 0 0 0 0 0 0 0
$ 0 0 1 0 1 1 0 0 0 0 0 0 0 0 0 0 0 0 0 0 0
$ 0 0 1 0 0 0 0 0 1 0 0 0 0 0 0 0 0 0 0 0 0
$ 0 0 0 1 0 1 1 0 0 0 0 0 0 0 0 0 0 0 0 0 0
$ 0 0 0 0 1 0 1 1 0 0 0 0 0 0 0 0 0 0 0 0 0
$ 0 0 0 0 0 1 0 1 1 0 0 0 0 0 0 0 0 0 0 0 0
$ 0 0 0 0 0 0 1 0 1 0 0 0 0 0 0 0 0 0 0 0 0
$ 0 0 0 0 0 0 0 0 0 1 1 1 1 1 1 1 1 1 1 1 0

letting J_FunctionND be
        [[0, 1, 2, 3, 4, 5, 6, 7, 8, 9, 10, 11, 12, 13, 14, 15, 16, 17, 18, 19, 20; int(0..20)],
         [1, 1, 9, 10, 10, 11, 9, 12, 10, 9, 10, 11, 12, 20, 20, 20, 20, 20, 20, 20, 20; int(0..20)],
         [2, 9, 2, 13, 14, 14, 9, 13, 15, 9, 20, 20, 20, 13, 14, 15, 20, 20, 20, 20, 20; int(0..20)],
         [3, 10, 13, 3, 10, 16, 16, 13, 10, 20, 10, 20, 20, 13, 20, 20, 16, 20, 20, 20, 20; int(0..20)],
         [4, 10, 14, 10, 4, 14, 17, 17, 10, 20, 10, 20, 20, 20, 14, 20, 20, 17, 20, 20, 20; int(0..20)],
         [5, 11, 14, 16, 14, 5, 16, 18, 18, 20, 20, 11, 20, 20, 14, 20, 16, 20, 18, 20, 20; int(0..20)],
         [6, 9, 9, 16, 17, 16, 6, 17, 19, 9, 20, 20, 20, 20, 20, 20, 16, 17, 20, 19, 20; int(0..20)],
         [7, 12, 13, 13, 17, 18, 17, 7, 18, 20, 20, 20, 12, 13, 20, 20, 20, 17, 18, 20, 20; int(0..20)],
         [8, 10, 15, 10, 10, 18, 19, 18, 8, 20, 10, 20, 20, 20, 20, 15, 20, 20, 18, 19, 20; int(0..20)],
         [9, 9, 9, 20, 20, 20, 9, 20, 20, 9, 20, 20, 20, 20, 20, 20, 20, 20, 20, 20, 20; int(0..20)],
         [10, 10, 20, 10, 10, 20, 20, 20, 10, 20, 10, 20, 20, 20, 20, 20, 20, 20, 20, 20, 20; int(0..20)],
         [11, 11, 20, 20, 20, 11, 20, 20, 20, 20, 20, 11, 20, 20, 20, 20, 20, 20, 20, 20, 20; int(0..20)],
         [12, 12, 20, 20, 20, 20, 20, 12, 20, 20, 20, 20, 12, 20, 20, 20, 20, 20, 20, 20, 20; int(0..20)],
         [13, 20, 13, 13, 20, 20, 20, 13, 20, 20, 20, 20, 20, 13, 20, 20, 20, 20, 20, 20, 20; int(0..20)],
         [14, 20, 14, 20, 14, 14, 20, 20, 20, 20, 20, 20, 20, 20, 14, 20, 20, 20, 20, 20, 20; int(0..20)],
         [15, 20, 15, 20, 20, 20, 20, 20, 15, 20, 20, 20, 20, 20, 20, 15, 20, 20, 20, 20, 20; int(0..20)],
         [16, 20, 20, 16, 20, 16, 16, 20, 20, 20, 20, 20, 20, 20, 20, 20, 16, 20, 20, 20, 20; int(0..20)],
         [17, 20, 20, 20, 17, 20, 17, 17, 20, 20, 20, 20, 20, 20, 20, 20, 20, 17, 20, 20, 20; int(0..20)],
         [18, 20, 20, 20, 20, 18, 20, 18, 18, 20, 20, 20, 20, 20, 20, 20, 20, 20, 18, 20, 20; int(0..20)],
         [19, 20, 20, 20, 20, 20, 19, 20, 19, 20, 20, 20, 20, 20, 20, 20, 20, 20, 20, 19, 20; int(0..20)],
         [20, 20, 20, 20, 20, 20, 20, 20, 20, 20, 20, 20, 20, 20, 20, 20, 20, 20, 20, 20, 20; int(0..20)];
             int(0..20)]
$ Visualisation for J_FunctionND
$  0  1  2  3  4  5  6  7  8  9 10 11 12 13 14 15 16 17 18 19 20
$  1  1  9 10 10 11  9 12 10  9 10 11 12 20 20 20 20 20 20 20 20
$  2  9  2 13 14 14  9 13 15  9 20 20 20 13 14 15 20 20 20 20 20
$  3 10 13  3 10 16 16 13 10 20 10 20 20 13 20 20 16 20 20 20 20
$  4 10 14 10  4 14 17 17 10 20 10 20 20 20 14 20 20 17 20 20 20
$  5 11 14 16 14  5 16 18 18 20 20 11 20 20 14 20 16 20 18 20 20
$  6  9  9 16 17 16  6 17 19  9 20 20 20 20 20 20 16 17 20 19 20
$  7 12 13 13 17 18 17  7 18 20 20 20 12 13 20 20 20 17 18 20 20
$  8 10 15 10 10 18 19 18  8 20 10 20 20 20 20 15 20 20 18 19 20
$  9  9  9 20 20 20  9 20 20  9 20 20 20 20 20 20 20 20 20 20 20
$ 10 10 20 10 10 20 20 20 10 20 10 20 20 20 20 20 20 20 20 20 20
$ 11 11 20 20 20 11 20 20 20 20 20 11 20 20 20 20 20 20 20 20 20
$ 12 12 20 20 20 20 20 12 20 20 20 20 12 20 20 20 20 20 20 20 20
$ 13 20 13 13 20 20 20 13 20 20 20 20 20 13 20 20 20 20 20 20 20
$ 14 20 14 20 14 14 20 20 20 20 20 20 20 20 14 20 20 20 20 20 20
$ 15 20 15 20 20 20 20 20 15 20 20 20 20 20 20 15 20 20 20 20 20
$ 16 20 20 16 20 16 16 20 20 20 20 20 20 20 20 20 16 20 20 20 20
$ 17 20 20 20 17 20 17 17 20 20 20 20 20 20 20 20 20 17 20 20 20
$ 18 20 20 20 20 18 20 18 18 20 20 20 20 20 20 20 20 20 18 20 20
$ 19 20 20 20 20 20 19 20 19 20 20 20 20 20 20 20 20 20 20 19 20
$ 20 20 20 20 20 20 20 20 20 20 20 20 20 20 20 20 20 20 20 20 20

letting M_FunctionND be
        [[0, 0, 0, 0, 0, 0, 0, 0, 0, 0, 0, 0, 0, 0, 0, 0, 0, 0, 0, 0, 0; int(0..20)],
         [0, 1, 0, 0, 0, 0, 0, 0, 0, 1, 1, 1, 1, 0, 0, 0, 0, 0, 0, 0, 1; int(0..20)],
         [0, 0, 2, 0, 0, 0, 0, 0, 0, 2, 0, 0, 0, 2, 2, 2, 0, 0, 0, 0, 2; int(0..20)],
         [0, 0, 0, 3, 0, 0, 0, 0, 0, 0, 3, 0, 0, 3, 0, 0, 3, 0, 0, 0, 3; int(0..20)],
         [0, 0, 0, 0, 4, 0, 0, 0, 0, 0, 4, 0, 0, 0, 4, 0, 0, 4, 0, 0, 4; int(0..20)],
         [0, 0, 0, 0, 0, 5, 0, 0, 0, 0, 0, 5, 0, 0, 5, 0, 5, 0, 5, 0, 5; int(0..20)],
         [0, 0, 0, 0, 0, 0, 6, 0, 0, 6, 0, 0, 0, 0, 0, 0, 6, 6, 0, 6, 6; int(0..20)],
         [0, 0, 0, 0, 0, 0, 0, 7, 0, 0, 0, 0, 7, 7, 0, 0, 0, 7, 7, 0, 7; int(0..20)],
         [0, 0, 0, 0, 0, 0, 0, 0, 8, 0, 8, 0, 0, 0, 0, 8, 0, 0, 8, 8, 8; int(0..20)],
         [0, 1, 2, 0, 0, 0, 6, 0, 0, 9, 1, 1, 1, 2, 2, 2, 6, 6, 0, 6, 9; int(0..20)],
         [0, 1, 0, 3, 4, 0, 0, 0, 8, 1, 10, 1, 1, 3, 4, 8, 3, 4, 8, 8, 10; int(0..20)],
         [0, 1, 0, 0, 0, 5, 0, 0, 0, 1, 1, 11, 1, 0, 5, 0, 5, 0, 5, 0, 11; int(0..20)],
         [0, 1, 0, 0, 0, 0, 0, 7, 0, 1, 1, 1, 12, 7, 0, 0, 0, 7, 7, 0, 12; int(0..20)],
         [0, 0, 2, 3, 0, 0, 0, 7, 0, 2, 3, 0, 7, 13, 2, 2, 3, 7, 7, 0, 13; int(0..20)],
         [0, 0, 2, 0, 4, 5, 0, 0, 0, 2, 4, 5, 0, 2, 14, 2, 5, 4, 5, 0, 14; int(0..20)],
         [0, 0, 2, 0, 0, 0, 0, 0, 8, 2, 8, 0, 0, 2, 2, 15, 0, 0, 8, 8, 15; int(0..20)],
         [0, 0, 0, 3, 0, 5, 6, 0, 0, 6, 3, 5, 0, 3, 5, 0, 16, 6, 5, 6, 16; int(0..20)],
         [0, 0, 0, 0, 4, 0, 6, 7, 0, 6, 4, 0, 7, 7, 4, 0, 6, 17, 7, 6, 17; int(0..20)],
         [0, 0, 0, 0, 0, 5, 0, 7, 8, 0, 8, 5, 7, 7, 5, 8, 5, 7, 18, 8, 18; int(0..20)],
         [0, 0, 0, 0, 0, 0, 6, 0, 8, 6, 8, 0, 0, 0, 0, 8, 6, 6, 8, 19, 19; int(0..20)],
         [0, 1, 2, 3, 4, 5, 6, 7, 8, 9, 10, 11, 12, 13, 14, 15, 16, 17, 18, 19, 20; int(0..20)];
             int(0..20)]
$ Visualisation for M_FunctionND
$  0  0  0  0  0  0  0  0  0  0  0  0  0  0  0  0  0  0  0  0  0
$  0  1  0  0  0  0  0  0  0  1  1  1  1  0  0  0  0  0  0  0  1
$  0  0  2  0  0  0  0  0  0  2  0  0  0  2  2  2  0  0  0  0  2
$  0  0  0  3  0  0  0  0  0  0  3  0  0  3  0  0  3  0  0  0  3
$  0  0  0  0  4  0  0  0  0  0  4  0  0  0  4  0  0  4  0  0  4
$  0  0  0  0  0  5  0  0  0  0  0  5  0  0  5  0  5  0  5  0  5
$  0  0  0  0  0  0  6  0  0  6  0  0  0  0  0  0  6  6  0  6  6
$  0  0  0  0  0  0  0  7  0  0  0  0  7  7  0  0  0  7  7  0  7
$  0  0  0  0  0  0  0  0  8  0  8  0  0  0  0  8  0  0  8  8  8
$  0  1  2  0  0  0  6  0  0  9  1  1  1  2  2  2  6  6  0  6  9
$  0  1  0  3  4  0  0  0  8  1 10  1  1  3  4  8  3  4  8  8 10
$  0  1  0  0  0  5  0  0  0  1  1 11  1  0  5  0  5  0  5  0 11
$  0  1  0  0  0  0  0  7  0  1  1  1 12  7  0  0  0  7  7  0 12
$  0  0  2  3  0  0  0  7  0  2  3  0  7 13  2  2  3  7  7  0 13
$  0  0  2  0  4  5  0  0  0  2  4  5  0  2 14  2  5  4  5  0 14
$  0  0  2  0  0  0  0  0  8  2  8  0  0  2  2 15  0  0  8  8 15
$  0  0  0  3  0  5  6  0  0  6  3  5  0  3  5  0 16  6  5  6 16
$  0  0  0  0  4  0  6  7  0  6  4  0  7  7  4  0  6 17  7  6 17
$  0  0  0  0  0  5  0  7  8  0  8  5  7  7  5  8  5  7 18  8 18
$  0  0  0  0  0  0  6  0  8  6  8  0  0  0  0  8  6  6  8 19 19
$  0  1  2  3  4  5  6  7  8  9 10 11 12 13 14 15 16 17 18 19 20

letting R_Function1D be [0, 1, 1, 1, 1, 1, 1, 1, 1, 2, 2, 2, 2, 2, 2, 2, 2, 2, 2, 2, 3; int(0..20)]
